








































































































75 48 55 10 63 73 47 59 
54 20 39 0 46 33 29 
66 45 5 50 70 25 69 
60 76 38 26 8 16 7 22 
23 51 49 13 19 6 21 34 
27 43 14 64 35 58 24 32 
28 41 71 3 15 44 68 62 
18 11 56 61 74 72 9 52 
57 40 31 17 53 12 65 67 
1 30 4 37 2 42 36 
